container_length = 4800;
container_width = 3600;
container_height = 1500;
n = 6;
boxes = [|900, 275, 200, 10
         |400, 350, 275, 33
         |1200, 300, 250, 10
         |500, 375, 275, 27
         |800, 400, 200, 15
         |600, 300, 225, 25|];
